SAT
-91 -92 25 108 84 106 82 -42 -63 86 -105 -79 6 -94 -36 57 -44 39 62 3 52 132 -71 137 -67 -47 -99 -66 -88 138 48 -41 -61 140 18 -90 -55 53 -131 -12 49 -59 29 87 -139 141 43 -146 -24 117 -107 -113 120 16 -83 -68 -37 119 -50 118 -102 27 -123 100 -150 89 -8 28 142 95 32 -73 22 -70 -112 -7 -64 -75 -136 56 -77 -74 -148 134 -19 -147 -109 -35 101 23 -143 -51 17 -144 38 133 -60 130 -122 69 -149 -80 85 -15 -20 104 -21 14 -96 -2 -127 97 -4 -78 125 1 9 -93 -110 116 -111 129 115 -81 -40 -98 46 114 34 -58 -45 -76 -26 -126 10 65 11 -30 -103 -31 33 -121 -5 -124 -145 -128 -135 54 -72 13 0
